logs/2026_03_23_16_21_22_set_ds_1_ds_1_s005_g002_max.log
[2026-03-23T16:21:22.179Z] Pipeline "set_ds_1_ds_1_s005_g002" → 2026_03_23_16_21_22_set_ds_1_ds_1_s005_g002_max.sol
Set parameter WLSAccessID
Set parameter WLSSecret
Set parameter LicenseID to value 2792458
Set parameter LogFile to value "gurobi.log"
Using license file /root/gurobi.lic
Academic license 2792458 - for non-commercial use only - registered to an___@studenti.unipg.it

Gurobi Optimizer version 13.0.1 build v13.0.1rc0 (linux64 - "Ubuntu 24.04.4 LTS")
Copyright (c) 2026, Gurobi Optimization, LLC

Warning: Duplicate section found (read 'binary') - Is a variable name equal to an LP file format keyword?
Warning: Duplicate section found (read 'binary') - Is a variable name equal to an LP file format keyword?
Warning: Duplicate section found (read 'binary') - Is a variable name equal to an LP file format keyword?
Warning: Duplicate section found (read 'binary') - Is a variable name equal to an LP file format keyword?
Warning: Duplicate section found (read 'binary') - Is a variable name equal to an LP file format keyword?
Warning: Duplicate section found (read 'binary') - Is a variable name equal to an LP file format keyword?
Warning: Duplicate section found (read 'binary') - Is a variable name equal to an LP file format keyword?
Warning: Duplicate section found (read 'binary') - Is a variable name equal to an LP file format keyword?
Warning: Duplicate section found (read 'binary') - Is a variable name equal to an LP file format keyword?
Warning: Duplicate section found (read 'binary') - Is a variable name equal to an LP file format keyword?
Warning: Further warnings of this type will be omitted.
Read LP format model from file /root/bgw/data/uploads/2026_03_23_16_21_22_set_ds_1_ds_1_s005_g002_max.lp
Reading time = 0.00 seconds
: 1254 rows, 185 columns, 3680 nonzeros

Using Gurobi shared library /opt/gurobi1301/linux64/lib/libgurobi.so.13.0.1

CPU model: AMD EPYC-Genoa Processor, instruction set [SSE2|AVX|AVX2|AVX512]
Thread count: 16 physical cores, 16 logical processors, using up to 16 threads

Academic license 2792458 - for non-commercial use only - registered to an___@studenti.unipg.it
Optimize a model with 1254 rows, 185 columns and 3680 nonzeros (Max)
Model fingerprint: 0x07c133fd
Model has 21 linear objective coefficients
Variable types: 36 continuous, 149 integer (149 binary)
Coefficient statistics:
  Matrix range     [1e+00, 2e+01]
  Objective range  [1e+00, 1e+00]
  Bounds range     [1e+00, 1e+00]
  RHS range        [1e+00, 2e+01]

Found heuristic solution: objective 21.0000000
Presolve removed 307 rows and 58 columns
Presolve time: 0.00s
Presolved: 947 rows, 127 columns, 2925 nonzeros
Variable types: 0 continuous, 127 integer (120 binary)
Found heuristic solution: objective 38.0000000

Root relaxation: objective 1.090000e+02, 87 iterations, 0.00 seconds (0.00 work units)

    Nodes    |    Current Node    |     Objective Bounds      |     Work
 Expl Unexpl |  Obj  Depth IntInf | Incumbent    BestBd   Gap | It/Node Time

     0     0  109.00000    0   25   38.00000  109.00000   187%     -    0s
H    0     0                      45.0000000  109.00000   142%     -    0s
H    0     0                      48.0000000  109.00000   127%     -    0s
H    0     0                      58.0000000  109.00000  87.9%     -    0s
     0     0  109.00000    0   28   58.00000  109.00000  87.9%     -    0s
     0     0  109.00000    0   28   58.00000  109.00000  87.9%     -    0s
     0     0  109.00000    0   27   58.00000  109.00000  87.9%     -    0s
     0     0  109.00000    0   27   58.00000  109.00000  87.9%     -    0s
     0     0  109.00000    0   27   58.00000  109.00000  87.9%     -    0s
     0     0  109.00000    0   19   58.00000  109.00000  87.9%     -    0s
     0     0  106.00000    0   27   58.00000  106.00000  82.8%     -    0s
     0     0  106.00000    0   17   58.00000  106.00000  82.8%     -    0s
     0     0  106.00000    0   26   58.00000  106.00000  82.8%     -    0s
     0     0  106.00000    0   17   58.00000  106.00000  82.8%     -    0s
     0     0  106.00000    0   24   58.00000  106.00000  82.8%     -    0s
     0     0  106.00000    0   16   58.00000  106.00000  82.8%     -    0s
     0     0  105.46154    0   24   58.00000  105.46154  81.8%     -    0s
     0     0  105.46154    0   24   58.00000  105.46154  81.8%     -    0s
     0     0  103.53846    0   24   58.00000  103.53846  78.5%     -    0s
     0     0  103.53846    0   19   58.00000  103.53846  78.5%     -    0s
     0     0  103.00000    0   19   58.00000  103.00000  77.6%     -    0s
     0     0  103.00000    0   16   58.00000  103.00000  77.6%     -    0s
     0     2  103.00000    0   16   58.00000  103.00000  77.6%     -    0s

Cutting planes:
  Cover: 55
  MIR: 2
  StrongCG: 1
  Inf proof: 62

Explored 7528 nodes (272796 simplex iterations) in 0.92 seconds (1.21 work units)
Thread count was 16 (of 16 available processors)

Solution count 5: 58 48 45 ... 21

Optimal solution found (tolerance 1.00e-04)
Best objective 5.800000000000e+01, best bound 5.800000000000e+01, gap 0.0000%

Wrote result file '/root/bgw/data/results/2026_03_23_16_21_22_set_ds_1_ds_1_s005_g002_max.sol'

